p cnf 400 1
400 0
w 1 0.830717
w 2 1 0
w 2 -1 1
w 3 2 0.202377
w 3 -2 0.00462681
w 4 3 0.0230422
w 4 -3 0.678764
w 5 4 0
w 5 -4 1
w 6 5 1
w 6 -5 0
w 7 6 0.239501
w 7 -6 0.484828
w 8 7 0
w 8 -7 1
w 9 8 0.4503
w 9 -8 0.608816
w 10 9 0
w 10 -9 1
w 11 10 0.501035
w 11 -10 0.564647
w 12 11 0
w 12 -11 1
w 13 12 1
w 13 -12 0
w 14 13 0
w 14 -13 1
w 15 14 0.426683
w 15 -14 0.534597
w 16 15 0
w 16 -15 1
w 17 16 0
w 17 -16 1
w 18 17 0
w 18 -17 1
w 19 18 0.186161
w 19 -18 0.422525
w 20 19 0.425663
w 20 -19 0.907354
w 21 1 0
w 21 -1 1
w 22 21 2 0.658155
w 22 21 -2 0.496593
w 22 -21 2 0.0491199
w 22 -21 -2 0.0852826
w 23 22 3 0
w 23 22 -3 1
w 23 -22 3 1
w 23 -22 -3 1
w 24 23 4 1
w 24 23 -4 0
w 24 -23 4 1
w 24 -23 -4 0
w 25 24 5 0
w 25 24 -5 0
w 25 -24 5 1
w 25 -24 -5 0
w 26 25 6 1
w 26 25 -6 0
w 26 -25 6 1
w 26 -25 -6 1
w 27 26 7 0.0122888
w 27 26 -7 0.588939
w 27 -26 7 0.918569
w 27 -26 -7 0.900066
w 28 27 8 0
w 28 27 -8 1
w 28 -27 8 1
w 28 -27 -8 0
w 29 28 9 0.847018
w 29 28 -9 0.311936
w 29 -28 9 0.479971
w 29 -28 -9 0.15716
w 30 29 10 0
w 30 29 -10 1
w 30 -29 10 0
w 30 -29 -10 1
w 31 30 11 0
w 31 30 -11 1
w 31 -30 11 1
w 31 -30 -11 1
w 32 31 12 0.139495
w 32 31 -12 0.4617
w 32 -31 12 0.476947
w 32 -31 -12 0.726121
w 33 32 13 0
w 33 32 -13 1
w 33 -32 13 0
w 33 -32 -13 1
w 34 33 14 0.979968
w 34 33 -14 0.682952
w 34 -33 14 0.0351359
w 34 -33 -14 0.276831
w 35 34 15 1
w 35 34 -15 0
w 35 -34 15 1
w 35 -34 -15 0
w 36 35 16 1
w 36 35 -16 1
w 36 -35 16 1
w 36 -35 -16 0
w 37 36 17 0
w 37 36 -17 0
w 37 -36 17 0
w 37 -36 -17 1
w 38 37 18 1
w 38 37 -18 0
w 38 -37 18 0
w 38 -37 -18 1
w 39 38 19 0.823857
w 39 38 -19 0.170941
w 39 -38 19 0.662263
w 39 -38 -19 0.556082
w 40 39 20 1
w 40 39 -20 1
w 40 -39 20 1
w 40 -39 -20 0
w 41 21 0.30508
w 41 -21 0.118071
w 42 41 22 0.961974
w 42 41 -22 0.380238
w 42 -41 22 0.21774
w 42 -41 -22 0.635979
w 43 42 23 1
w 43 42 -23 0
w 43 -42 23 1
w 43 -42 -23 1
w 44 43 24 0.565629
w 44 43 -24 0.465749
w 44 -43 24 0.153331
w 44 -43 -24 0.0719632
w 45 44 25 0.833902
w 45 44 -25 0.0552441
w 45 -44 25 0.587333
w 45 -44 -25 0.657759
w 46 45 26 1
w 46 45 -26 0
w 46 -45 26 1
w 46 -45 -26 0
w 47 46 27 0.463475
w 47 46 -27 0.886209
w 47 -46 27 0.562774
w 47 -46 -27 0.768555
w 48 47 28 0
w 48 47 -28 1
w 48 -47 28 1
w 48 -47 -28 1
w 49 48 29 0.805553
w 49 48 -29 0.284738
w 49 -48 29 0.257209
w 49 -48 -29 0.213066
w 50 49 30 1
w 50 49 -30 1
w 50 -49 30 1
w 50 -49 -30 0
w 51 50 31 1
w 51 50 -31 0
w 51 -50 31 1
w 51 -50 -31 0
w 52 51 32 0
w 52 51 -32 0
w 52 -51 32 1
w 52 -51 -32 1
w 53 52 33 0.143059
w 53 52 -33 0.615767
w 53 -52 33 0.390699
w 53 -52 -33 0.911614
w 54 53 34 0.890205
w 54 53 -34 0.642144
w 54 -53 34 0.00456529
w 54 -53 -34 0.607451
w 55 54 35 1
w 55 54 -35 1
w 55 -54 35 1
w 55 -54 -35 0
w 56 55 36 0.512588
w 56 55 -36 0.705671
w 56 -55 36 0.304884
w 56 -55 -36 0.885118
w 57 56 37 0.647179
w 57 56 -37 0.0915501
w 57 -56 37 0.550517
w 57 -56 -37 0.576807
w 58 57 38 0.726748
w 58 57 -38 0.756031
w 58 -57 38 0.033774
w 58 -57 -38 0.406332
w 59 58 39 1
w 59 58 -39 1
w 59 -58 39 0
w 59 -58 -39 0
w 60 59 40 1
w 60 59 -40 0
w 60 -59 40 1
w 60 -59 -40 1
w 61 41 0.111801
w 61 -41 0.351591
w 62 61 42 1
w 62 61 -42 0
w 62 -61 42 0
w 62 -61 -42 0
w 63 62 43 1
w 63 62 -43 1
w 63 -62 43 1
w 63 -62 -43 0
w 64 63 44 0
w 64 63 -44 1
w 64 -63 44 0
w 64 -63 -44 0
w 65 64 45 0.224163
w 65 64 -45 0.559616
w 65 -64 45 0.745661
w 65 -64 -45 0.773553
w 66 65 46 0.99806
w 66 65 -46 0.234558
w 66 -65 46 0.382374
w 66 -65 -46 0.140663
w 67 66 47 0
w 67 66 -47 0
w 67 -66 47 0
w 67 -66 -47 1
w 68 67 48 0
w 68 67 -48 1
w 68 -67 48 1
w 68 -67 -48 1
w 69 68 49 0.936911
w 69 68 -49 0.575375
w 69 -68 49 0.175016
w 69 -68 -49 0.678101
w 70 69 50 0
w 70 69 -50 1
w 70 -69 50 1
w 70 -69 -50 0
w 71 70 51 0
w 71 70 -51 0
w 71 -70 51 1
w 71 -70 -51 0
w 72 71 52 0
w 72 71 -52 0
w 72 -71 52 0
w 72 -71 -52 1
w 73 72 53 1
w 73 72 -53 0
w 73 -72 53 0
w 73 -72 -53 1
w 74 73 54 1
w 74 73 -54 1
w 74 -73 54 0
w 74 -73 -54 0
w 75 74 55 0.570166
w 75 74 -55 0.812661
w 75 -74 55 0.305973
w 75 -74 -55 0.745182
w 76 75 56 1
w 76 75 -56 1
w 76 -75 56 1
w 76 -75 -56 0
w 77 76 57 0.29978
w 77 76 -57 0.403306
w 77 -76 57 0.186726
w 77 -76 -57 0.249414
w 78 77 58 1
w 78 77 -58 1
w 78 -77 58 1
w 78 -77 -58 0
w 79 78 59 1
w 79 78 -59 1
w 79 -78 59 1
w 79 -78 -59 0
w 80 79 60 0
w 80 79 -60 0
w 80 -79 60 0
w 80 -79 -60 1
w 81 61 0.985801
w 81 -61 0.553184
w 82 81 62 0
w 82 81 -62 1
w 82 -81 62 0
w 82 -81 -62 1
w 83 82 63 0
w 83 82 -63 1
w 83 -82 63 1
w 83 -82 -63 1
w 84 83 64 0.97398
w 84 83 -64 0.419132
w 84 -83 64 0.184573
w 84 -83 -64 0.171089
w 85 84 65 1
w 85 84 -65 1
w 85 -84 65 1
w 85 -84 -65 0
w 86 85 66 0.233854
w 86 85 -66 0.440366
w 86 -85 66 0.0184879
w 86 -85 -66 0.750466
w 87 86 67 0.191628
w 87 86 -67 0.997676
w 87 -86 67 0.228591
w 87 -86 -67 0.17743
w 88 87 68 0.652968
w 88 87 -68 0.653993
w 88 -87 68 0.879839
w 88 -87 -68 0.0886282
w 89 88 69 0.304625
w 89 88 -69 0.619501
w 89 -88 69 0.137821
w 89 -88 -69 0.0291906
w 90 89 70 0.844955
w 90 89 -70 0.00317054
w 90 -89 70 0.972812
w 90 -89 -70 0.0295272
w 91 90 71 1
w 91 90 -71 0
w 91 -90 71 0
w 91 -90 -71 0
w 92 91 72 0.351912
w 92 91 -72 0.102318
w 92 -91 72 0.0720434
w 92 -91 -72 0.3704
w 93 92 73 0.621439
w 93 92 -73 0.562028
w 93 -92 73 0.85046
w 93 -92 -73 0.850029
w 94 93 74 0.40132
w 94 93 -74 0.502998
w 94 -93 74 0.393451
w 94 -93 -74 0.281159
w 95 94 75 0.0108654
w 95 94 -75 0.585784
w 95 -94 75 0.211127
w 95 -94 -75 0.148687
w 96 95 76 0.764807
w 96 95 -76 0.993642
w 96 -95 76 0.618145
w 96 -95 -76 0.737619
w 97 96 77 0
w 97 96 -77 0
w 97 -96 77 0
w 97 -96 -77 1
w 98 97 78 0.0194722
w 98 97 -78 0.775132
w 98 -97 78 0.901504
w 98 -97 -78 0.0915156
w 99 98 79 0
w 99 98 -79 0
w 99 -98 79 1
w 99 -98 -79 1
w 100 99 80 0.447019
w 100 99 -80 0.00606845
w 100 -99 80 0.0659809
w 100 -99 -80 0.840469
w 101 81 1
w 101 -81 0
w 102 101 82 0.873012
w 102 101 -82 0.868733
w 102 -101 82 2.16346e-05
w 102 -101 -82 0.487987
w 103 102 83 0.993663
w 103 102 -83 0.106132
w 103 -102 83 0.371159
w 103 -102 -83 0.0168319
w 104 103 84 0.301881
w 104 103 -84 0.404626
w 104 -103 84 0.321757
w 104 -103 -84 0.101067
w 105 104 85 0
w 105 104 -85 1
w 105 -104 85 1
w 105 -104 -85 0
w 106 105 86 0.228568
w 106 105 -86 0.949981
w 106 -105 86 0.361608
w 106 -105 -86 0.791552
w 107 106 87 0
w 107 106 -87 1
w 107 -106 87 0
w 107 -106 -87 0
w 108 107 88 0.0888041
w 108 107 -88 0.527916
w 108 -107 88 0.383873
w 108 -107 -88 0.0888258
w 109 108 89 0
w 109 108 -89 1
w 109 -108 89 1
w 109 -108 -89 1
w 110 109 90 0
w 110 109 -90 1
w 110 -109 90 1
w 110 -109 -90 0
w 111 110 91 0.439219
w 111 110 -91 0.794091
w 111 -110 91 0.44366
w 111 -110 -91 0.681639
w 112 111 92 0.672228
w 112 111 -92 0.631621
w 112 -111 92 0.912559
w 112 -111 -92 0.46378
w 113 112 93 1
w 113 112 -93 1
w 113 -112 93 0
w 113 -112 -93 1
w 114 113 94 0.354894
w 114 113 -94 0.463057
w 114 -113 94 0.220325
w 114 -113 -94 0.44372
w 115 114 95 0
w 115 114 -95 1
w 115 -114 95 1
w 115 -114 -95 0
w 116 115 96 0.621568
w 116 115 -96 0.316761
w 116 -115 96 0.129477
w 116 -115 -96 0.963898
w 117 116 97 0
w 117 116 -97 1
w 117 -116 97 1
w 117 -116 -97 1
w 118 117 98 1
w 118 117 -98 1
w 118 -117 98 1
w 118 -117 -98 0
w 119 118 99 0.744997
w 119 118 -99 0.646118
w 119 -118 99 0.958504
w 119 -118 -99 0.0110875
w 120 119 100 0.794956
w 120 119 -100 0.365982
w 120 -119 100 0.0443157
w 120 -119 -100 0.0152806
w 121 101 0.523276
w 121 -101 0.253018
w 122 121 102 1
w 122 121 -102 1
w 122 -121 102 1
w 122 -121 -102 0
w 123 122 103 1
w 123 122 -103 0
w 123 -122 103 1
w 123 -122 -103 1
w 124 123 104 0
w 124 123 -104 1
w 124 -123 104 0
w 124 -123 -104 0
w 125 124 105 1
w 125 124 -105 1
w 125 -124 105 1
w 125 -124 -105 0
w 126 125 106 0.253324
w 126 125 -106 0.213687
w 126 -125 106 0.0360523
w 126 -125 -106 0.29764
w 127 126 107 1
w 127 126 -107 0
w 127 -126 107 1
w 127 -126 -107 0
w 128 127 108 0.361311
w 128 127 -108 0.143105
w 128 -127 108 0.691026
w 128 -127 -108 0.557399
w 129 128 109 0
w 129 128 -109 0
w 129 -128 109 0
w 129 -128 -109 1
w 130 129 110 1
w 130 129 -110 1
w 130 -129 110 0
w 130 -129 -110 1
w 131 130 111 0.754521
w 131 130 -111 0.315349
w 131 -130 111 0.284194
w 131 -130 -111 0.426586
w 132 131 112 0.954264
w 132 131 -112 0.67991
w 132 -131 112 0.947766
w 132 -131 -112 0.990317
w 133 132 113 0.176733
w 133 132 -113 0.836071
w 133 -132 113 0.798465
w 133 -132 -113 0.658718
w 134 133 114 0
w 134 133 -114 1
w 134 -133 114 1
w 134 -133 -114 1
w 135 134 115 0.394864
w 135 134 -115 0.83544
w 135 -134 115 0.439197
w 135 -134 -115 0.777328
w 136 135 116 0
w 136 135 -116 0
w 136 -135 116 1
w 136 -135 -116 0
w 137 136 117 0.685492
w 137 136 -117 0.990801
w 137 -136 117 0.979886
w 137 -136 -117 0.969686
w 138 137 118 0
w 138 137 -118 0
w 138 -137 118 0
w 138 -137 -118 1
w 139 138 119 0.0748471
w 139 138 -119 0.838464
w 139 -138 119 0.750337
w 139 -138 -119 0.873312
w 140 139 120 1
w 140 139 -120 0
w 140 -139 120 0
w 140 -139 -120 0
w 141 121 1
w 141 -121 0
w 142 141 122 0
w 142 141 -122 0
w 142 -141 122 0
w 142 -141 -122 1
w 143 142 123 0
w 143 142 -123 0
w 143 -142 123 1
w 143 -142 -123 1
w 144 143 124 0.268626
w 144 143 -124 0.554945
w 144 -143 124 0.951597
w 144 -143 -124 0.686013
w 145 144 125 1
w 145 144 -125 0
w 145 -144 125 0
w 145 -144 -125 0
w 146 145 126 0.769105
w 146 145 -126 0.540151
w 146 -145 126 0.73147
w 146 -145 -126 0.266287
w 147 146 127 1
w 147 146 -127 1
w 147 -146 127 0
w 147 -146 -127 1
w 148 147 128 0.560914
w 148 147 -128 0.287157
w 148 -147 128 0.411974
w 148 -147 -128 0.662019
w 149 148 129 0.453518
w 149 148 -129 0.57254
w 149 -148 129 0.819714
w 149 -148 -129 0.731342
w 150 149 130 0
w 150 149 -130 0
w 150 -149 130 1
w 150 -149 -130 0
w 151 150 131 0.971453
w 151 150 -131 0.628769
w 151 -150 131 0.469291
w 151 -150 -131 0.902094
w 152 151 132 0
w 152 151 -132 1
w 152 -151 132 0
w 152 -151 -132 1
w 153 152 133 0.266957
w 153 152 -133 0.407351
w 153 -152 133 0.720985
w 153 -152 -133 0.504093
w 154 153 134 0.599122
w 154 153 -134 0.0650072
w 154 -153 134 0.0945824
w 154 -153 -134 0.0110965
w 155 154 135 0.617877
w 155 154 -135 0.464614
w 155 -154 135 0.299567
w 155 -154 -135 0.437591
w 156 155 136 0
w 156 155 -136 0
w 156 -155 136 0
w 156 -155 -136 1
w 157 156 137 0.881904
w 157 156 -137 0.121161
w 157 -156 137 0.621207
w 157 -156 -137 0.351195
w 158 157 138 0
w 158 157 -138 1
w 158 -157 138 0
w 158 -157 -138 0
w 159 158 139 0.631941
w 159 158 -139 0.26548
w 159 -158 139 0.144911
w 159 -158 -139 0.352925
w 160 159 140 0.952337
w 160 159 -140 0.952047
w 160 -159 140 0.83458
w 160 -159 -140 0.0469189
w 161 141 0.561607
w 161 -141 0.664796
w 162 161 142 0
w 162 161 -142 0
w 162 -161 142 1
w 162 -161 -142 0
w 163 162 143 0.458046
w 163 162 -143 0.33404
w 163 -162 143 0.701542
w 163 -162 -143 0.579207
w 164 163 144 0.0527372
w 164 163 -144 0.602462
w 164 -163 144 0.995037
w 164 -163 -144 0.73138
w 165 164 145 0
w 165 164 -145 1
w 165 -164 145 0
w 165 -164 -145 1
w 166 165 146 0.281782
w 166 165 -146 0.0286127
w 166 -165 146 0.566187
w 166 -165 -146 0.23383
w 167 166 147 0.613106
w 167 166 -147 0.196974
w 167 -166 147 0.424799
w 167 -166 -147 0.277902
w 168 167 148 0.285973
w 168 167 -148 0.380288
w 168 -167 148 0.248446
w 168 -167 -148 0.594311
w 169 168 149 0.0680846
w 169 168 -149 0.0523575
w 169 -168 149 0.0559308
w 169 -168 -149 0.769627
w 170 169 150 0.0111782
w 170 169 -150 0.822364
w 170 -169 150 0.234027
w 170 -169 -150 0.00621526
w 171 170 151 0.530943
w 171 170 -151 0.999776
w 171 -170 151 0.0226835
w 171 -170 -151 0.4598
w 172 171 152 0
w 172 171 -152 1
w 172 -171 152 1
w 172 -171 -152 1
w 173 172 153 0.150621
w 173 172 -153 0.815826
w 173 -172 153 0.172385
w 173 -172 -153 0.57542
w 174 173 154 0
w 174 173 -154 0
w 174 -173 154 1
w 174 -173 -154 0
w 175 174 155 0
w 175 174 -155 0
w 175 -174 155 0
w 175 -174 -155 1
w 176 175 156 1
w 176 175 -156 1
w 176 -175 156 0
w 176 -175 -156 1
w 177 176 157 0
w 177 176 -157 1
w 177 -176 157 0
w 177 -176 -157 0
w 178 177 158 0.9186
w 178 177 -158 0.105977
w 178 -177 158 0.81525
w 178 -177 -158 0.121321
w 179 178 159 0
w 179 178 -159 1
w 179 -178 159 1
w 179 -178 -159 0
w 180 179 160 1
w 180 179 -160 0
w 180 -179 160 1
w 180 -179 -160 1
w 181 161 0.700799
w 181 -161 0.210102
w 182 181 162 1
w 182 181 -162 1
w 182 -181 162 0
w 182 -181 -162 1
w 183 182 163 0.879728
w 183 182 -163 0.484883
w 183 -182 163 0.0583991
w 183 -182 -163 0.784323
w 184 183 164 0.340466
w 184 183 -164 0.148718
w 184 -183 164 0.281712
w 184 -183 -164 0.259066
w 185 184 165 0
w 185 184 -165 1
w 185 -184 165 1
w 185 -184 -165 1
w 186 185 166 0.604125
w 186 185 -166 0.34841
w 186 -185 166 0.640749
w 186 -185 -166 0.00680847
w 187 186 167 0.737203
w 187 186 -167 0.865196
w 187 -186 167 0.554101
w 187 -186 -167 0.947305
w 188 187 168 1
w 188 187 -168 0
w 188 -187 168 0
w 188 -187 -168 0
w 189 188 169 0.617448
w 189 188 -169 0.207273
w 189 -188 169 0.898097
w 189 -188 -169 0.401771
w 190 189 170 0.238563
w 190 189 -170 0.550489
w 190 -189 170 0.242875
w 190 -189 -170 0.497629
w 191 190 171 0.339837
w 191 190 -171 0.878016
w 191 -190 171 0.141268
w 191 -190 -171 0.402671
w 192 191 172 1
w 192 191 -172 0
w 192 -191 172 0
w 192 -191 -172 1
w 193 192 173 0
w 193 192 -173 1
w 193 -192 173 0
w 193 -192 -173 0
w 194 193 174 0
w 194 193 -174 1
w 194 -193 174 0
w 194 -193 -174 1
w 195 194 175 0
w 195 194 -175 1
w 195 -194 175 1
w 195 -194 -175 1
w 196 195 176 0.348925
w 196 195 -176 0.0734245
w 196 -195 176 0.417874
w 196 -195 -176 0.5918
w 197 196 177 0.223058
w 197 196 -177 0.931637
w 197 -196 177 0.44907
w 197 -196 -177 0.364326
w 198 197 178 0
w 198 197 -178 1
w 198 -197 178 1
w 198 -197 -178 1
w 199 198 179 1
w 199 198 -179 0
w 199 -198 179 1
w 199 -198 -179 1
w 200 199 180 0.343953
w 200 199 -180 0.995307
w 200 -199 180 0.729856
w 200 -199 -180 0.192119
w 201 181 0
w 201 -181 1
w 202 201 182 0.563559
w 202 201 -182 0.501482
w 202 -201 182 0.525118
w 202 -201 -182 0.912484
w 203 202 183 0.942991
w 203 202 -183 0.504284
w 203 -202 183 0.14596
w 203 -202 -183 0.166049
w 204 203 184 0
w 204 203 -184 1
w 204 -203 184 0
w 204 -203 -184 0
w 205 204 185 0.111333
w 205 204 -185 0.428231
w 205 -204 185 0.093155
w 205 -204 -185 0.46604
w 206 205 186 0
w 206 205 -186 0
w 206 -205 186 0
w 206 -205 -186 1
w 207 206 187 1
w 207 206 -187 1
w 207 -206 187 1
w 207 -206 -187 0
w 208 207 188 0.893352
w 208 207 -188 0.285943
w 208 -207 188 0.20031
w 208 -207 -188 0.41847
w 209 208 189 1
w 209 208 -189 1
w 209 -208 189 0
w 209 -208 -189 0
w 210 209 190 0.138631
w 210 209 -190 0.516206
w 210 -209 190 0.0578848
w 210 -209 -190 0.90886
w 211 210 191 0.683712
w 211 210 -191 0.020193
w 211 -210 191 0.184086
w 211 -210 -191 0.776867
w 212 211 192 1
w 212 211 -192 0
w 212 -211 192 0
w 212 -211 -192 1
w 213 212 193 0.229281
w 213 212 -193 0.296029
w 213 -212 193 0.780988
w 213 -212 -193 0.464901
w 214 213 194 0
w 214 213 -194 1
w 214 -213 194 0
w 214 -213 -194 0
w 215 214 195 0.455342
w 215 214 -195 0.138183
w 215 -214 195 0.205493
w 215 -214 -195 0.376519
w 216 215 196 0.344124
w 216 215 -196 0.892725
w 216 -215 196 0.723578
w 216 -215 -196 0.252984
w 217 216 197 0.40729
w 217 216 -197 0.273177
w 217 -216 197 0.832667
w 217 -216 -197 0.184157
w 218 217 198 0.0308272
w 218 217 -198 0.630585
w 218 -217 198 0.945191
w 218 -217 -198 0.780269
w 219 218 199 1
w 219 218 -199 0
w 219 -218 199 1
w 219 -218 -199 0
w 220 219 200 1
w 220 219 -200 0
w 220 -219 200 1
w 220 -219 -200 1
w 221 201 0.90185
w 221 -201 0.775637
w 222 221 202 0.107343
w 222 221 -202 0.152156
w 222 -221 202 0.578224
w 222 -221 -202 0.451467
w 223 222 203 1
w 223 222 -203 1
w 223 -222 203 0
w 223 -222 -203 0
w 224 223 204 0.526128
w 224 223 -204 0.893249
w 224 -223 204 0.737038
w 224 -223 -204 0.556955
w 225 224 205 0.682229
w 225 224 -205 0.337223
w 225 -224 205 0.9032
w 225 -224 -205 0.856701
w 226 225 206 1
w 226 225 -206 1
w 226 -225 206 0
w 226 -225 -206 0
w 227 226 207 1
w 227 226 -207 0
w 227 -226 207 1
w 227 -226 -207 0
w 228 227 208 0.180576
w 228 227 -208 0.916493
w 228 -227 208 0.951808
w 228 -227 -208 0.7588
w 229 228 209 0
w 229 228 -209 0
w 229 -228 209 1
w 229 -228 -209 0
w 230 229 210 0.0500386
w 230 229 -210 0.216277
w 230 -229 210 0.662943
w 230 -229 -210 0.787077
w 231 230 211 0.186777
w 231 230 -211 0.469306
w 231 -230 211 0.110455
w 231 -230 -211 0.0899771
w 232 231 212 0
w 232 231 -212 0
w 232 -231 212 1
w 232 -231 -212 0
w 233 232 213 0.315777
w 233 232 -213 0.939508
w 233 -232 213 0.881267
w 233 -232 -213 0.583823
w 234 233 214 0.680919
w 234 233 -214 0.764399
w 234 -233 214 0.665151
w 234 -233 -214 0.632727
w 235 234 215 0.0331103
w 235 234 -215 0.629415
w 235 -234 215 0.583801
w 235 -234 -215 0.105521
w 236 235 216 0
w 236 235 -216 0
w 236 -235 216 0
w 236 -235 -216 1
w 237 236 217 0.309072
w 237 236 -217 0.203214
w 237 -236 217 0.411942
w 237 -236 -217 0.419527
w 238 237 218 1
w 238 237 -218 0
w 238 -237 218 1
w 238 -237 -218 1
w 239 238 219 0
w 239 238 -219 1
w 239 -238 219 1
w 239 -238 -219 1
w 240 239 220 0.866158
w 240 239 -220 0.224027
w 240 -239 220 0.329027
w 240 -239 -220 0.498884
w 241 221 0.362137
w 241 -221 0.128299
w 242 241 222 1
w 242 241 -222 0
w 242 -241 222 1
w 242 -241 -222 0
w 243 242 223 0.700959
w 243 242 -223 0.565854
w 243 -242 223 0.292775
w 243 -242 -223 0.904173
w 244 243 224 0.712302
w 244 243 -224 0.197365
w 244 -243 224 0.715745
w 244 -243 -224 0.655805
w 245 244 225 0.275773
w 245 244 -225 0.631515
w 245 -244 225 0.948058
w 245 -244 -225 0.151578
w 246 245 226 0.133297
w 246 245 -226 0.611206
w 246 -245 226 0.210611
w 246 -245 -226 0.999455
w 247 246 227 0.539638
w 247 246 -227 0.498339
w 247 -246 227 0.582459
w 247 -246 -227 0.901775
w 248 247 228 0.913486
w 248 247 -228 0.369434
w 248 -247 228 0.0745011
w 248 -247 -228 0.598008
w 249 248 229 0.0582047
w 249 248 -229 0.298966
w 249 -248 229 0.558506
w 249 -248 -229 0.35098
w 250 249 230 1
w 250 249 -230 1
w 250 -249 230 0
w 250 -249 -230 1
w 251 250 231 0
w 251 250 -231 0
w 251 -250 231 0
w 251 -250 -231 1
w 252 251 232 0.125945
w 252 251 -232 0.290604
w 252 -251 232 0.107947
w 252 -251 -232 0.125399
w 253 252 233 0
w 253 252 -233 1
w 253 -252 233 0
w 253 -252 -233 0
w 254 253 234 1
w 254 253 -234 0
w 254 -253 234 0
w 254 -253 -234 0
w 255 254 235 0.383082
w 255 254 -235 0.518757
w 255 -254 235 0.469951
w 255 -254 -235 0.734062
w 256 255 236 0.00625327
w 256 255 -236 0.797345
w 256 -255 236 0.1224
w 256 -255 -236 0.2583
w 257 256 237 0.16699
w 257 256 -237 0.78612
w 257 -256 237 0.867034
w 257 -256 -237 0.159637
w 258 257 238 0
w 258 257 -238 0
w 258 -257 238 0
w 258 -257 -238 1
w 259 258 239 0
w 259 258 -239 1
w 259 -258 239 1
w 259 -258 -239 1
w 260 259 240 1
w 260 259 -240 0
w 260 -259 240 0
w 260 -259 -240 1
w 261 241 0.993055
w 261 -241 0.950587
w 262 261 242 0
w 262 261 -242 1
w 262 -261 242 0
w 262 -261 -242 0
w 263 262 243 0.634007
w 263 262 -243 0.040894
w 263 -262 243 0.961873
w 263 -262 -243 0.420128
w 264 263 244 0.121511
w 264 263 -244 0.885646
w 264 -263 244 0.6723
w 264 -263 -244 0.407093
w 265 264 245 0.544618
w 265 264 -245 0.818074
w 265 -264 245 0.523728
w 265 -264 -245 0.0645217
w 266 265 246 0.113984
w 266 265 -246 0.133785
w 266 -265 246 0.13789
w 266 -265 -246 0.326023
w 267 266 247 1
w 267 266 -247 1
w 267 -266 247 0
w 267 -266 -247 1
w 268 267 248 0.390799
w 268 267 -248 0.468035
w 268 -267 248 0.380924
w 268 -267 -248 0.766506
w 269 268 249 0.175808
w 269 268 -249 0.400513
w 269 -268 249 0.0333916
w 269 -268 -249 0.137681
w 270 269 250 0.94132
w 270 269 -250 0.259192
w 270 -269 250 0.706287
w 270 -269 -250 0.61362
w 271 270 251 0.348055
w 271 270 -251 0.158238
w 271 -270 251 0.484359
w 271 -270 -251 0.871782
w 272 271 252 1
w 272 271 -252 1
w 272 -271 252 0
w 272 -271 -252 0
w 273 272 253 1
w 273 272 -253 1
w 273 -272 253 0
w 273 -272 -253 1
w 274 273 254 0.778083
w 274 273 -254 0.890532
w 274 -273 254 0.431859
w 274 -273 -254 0.159007
w 275 274 255 0.424356
w 275 274 -255 0.334815
w 275 -274 255 0.0575512
w 275 -274 -255 0.457748
w 276 275 256 0
w 276 275 -256 0
w 276 -275 256 0
w 276 -275 -256 1
w 277 276 257 0
w 277 276 -257 0
w 277 -276 257 1
w 277 -276 -257 0
w 278 277 258 1
w 278 277 -258 0
w 278 -277 258 1
w 278 -277 -258 1
w 279 278 259 0
w 279 278 -259 0
w 279 -278 259 0
w 279 -278 -259 1
w 280 279 260 0.949597
w 280 279 -260 0.618884
w 280 -279 260 0.313115
w 280 -279 -260 0.108605
w 281 261 1
w 281 -261 0
w 282 281 262 1
w 282 281 -262 1
w 282 -281 262 0
w 282 -281 -262 1
w 283 282 263 0.647604
w 283 282 -263 0.796143
w 283 -282 263 0.606975
w 283 -282 -263 0.0455763
w 284 283 264 0.777901
w 284 283 -264 0.927908
w 284 -283 264 0.532991
w 284 -283 -264 0.171587
w 285 284 265 0
w 285 284 -265 0
w 285 -284 265 1
w 285 -284 -265 0
w 286 285 266 0.596457
w 286 285 -266 0.878787
w 286 -285 266 0.64061
w 286 -285 -266 0.546054
w 287 286 267 1
w 287 286 -267 1
w 287 -286 267 1
w 287 -286 -267 0
w 288 287 268 0
w 288 287 -268 1
w 288 -287 268 1
w 288 -287 -268 1
w 289 288 269 1
w 289 288 -269 1
w 289 -288 269 1
w 289 -288 -269 0
w 290 289 270 0.86558
w 290 289 -270 0.635082
w 290 -289 270 0.37654
w 290 -289 -270 0.0371669
w 291 290 271 0.699612
w 291 290 -271 0.958984
w 291 -290 271 0.624395
w 291 -290 -271 0.124555
w 292 291 272 0
w 292 291 -272 0
w 292 -291 272 0
w 292 -291 -272 1
w 293 292 273 1
w 293 292 -273 0
w 293 -292 273 0
w 293 -292 -273 0
w 294 293 274 0.0198012
w 294 293 -274 0.366533
w 294 -293 274 0.555697
w 294 -293 -274 0.0337949
w 295 294 275 0.0364007
w 295 294 -275 0.695392
w 295 -294 275 0.800135
w 295 -294 -275 0.12408
w 296 295 276 1
w 296 295 -276 1
w 296 -295 276 1
w 296 -295 -276 0
w 297 296 277 1
w 297 296 -277 0
w 297 -296 277 0
w 297 -296 -277 1
w 298 297 278 0.0952299
w 298 297 -278 0.828267
w 298 -297 278 0.565401
w 298 -297 -278 0.0834356
w 299 298 279 0.832466
w 299 298 -279 0.569312
w 299 -298 279 0.83071
w 299 -298 -279 0.754189
w 300 299 280 0.499991
w 300 299 -280 0.77399
w 300 -299 280 0.195313
w 300 -299 -280 0.0556882
w 301 281 0.880575
w 301 -281 0.0920889
w 302 301 282 0.68071
w 302 301 -282 0.216169
w 302 -301 282 0.905743
w 302 -301 -282 0.324394
w 303 302 283 1
w 303 302 -283 0
w 303 -302 283 0
w 303 -302 -283 0
w 304 303 284 0
w 304 303 -284 1
w 304 -303 284 1
w 304 -303 -284 1
w 305 304 285 0
w 305 304 -285 0
w 305 -304 285 1
w 305 -304 -285 1
w 306 305 286 0.719633
w 306 305 -286 0.0608975
w 306 -305 286 0.795223
w 306 -305 -286 0.219625
w 307 306 287 0.990536
w 307 306 -287 0.275313
w 307 -306 287 0.642673
w 307 -306 -287 0.871112
w 308 307 288 1
w 308 307 -288 0
w 308 -307 288 0
w 308 -307 -288 1
w 309 308 289 0.789399
w 309 308 -289 0.994985
w 309 -308 289 0.220833
w 309 -308 -289 0.0220545
w 310 309 290 0.285284
w 310 309 -290 0.240521
w 310 -309 290 0.966529
w 310 -309 -290 0.194126
w 311 310 291 0.00282648
w 311 310 -291 0.668368
w 311 -310 291 0.951349
w 311 -310 -291 0.89175
w 312 311 292 0.917792
w 312 311 -292 0.611383
w 312 -311 292 0.0359737
w 312 -311 -292 0.713016
w 313 312 293 0.870862
w 313 312 -293 0.703552
w 313 -312 293 0.10632
w 313 -312 -293 0.513535
w 314 313 294 0.473722
w 314 313 -294 0.659386
w 314 -313 294 0.126485
w 314 -313 -294 0.0572923
w 315 314 295 0.00270084
w 315 314 -295 0.846691
w 315 -314 295 0.705966
w 315 -314 -295 0.223533
w 316 315 296 0.464465
w 316 315 -296 0.508818
w 316 -315 296 0.109267
w 316 -315 -296 0.430994
w 317 316 297 0.663484
w 317 316 -297 0.43382
w 317 -316 297 0.371311
w 317 -316 -297 0.614832
w 318 317 298 1
w 318 317 -298 0
w 318 -317 298 1
w 318 -317 -298 1
w 319 318 299 0
w 319 318 -299 0
w 319 -318 299 1
w 319 -318 -299 1
w 320 319 300 0.523855
w 320 319 -300 0.348003
w 320 -319 300 0.426144
w 320 -319 -300 0.650341
w 321 301 0
w 321 -301 1
w 322 321 302 0.251987
w 322 321 -302 0.843092
w 322 -321 302 0.876575
w 322 -321 -302 0.120732
w 323 322 303 0
w 323 322 -303 1
w 323 -322 303 1
w 323 -322 -303 1
w 324 323 304 0.172371
w 324 323 -304 0.459647
w 324 -323 304 0.508315
w 324 -323 -304 0.497941
w 325 324 305 0.0409397
w 325 324 -305 0.434894
w 325 -324 305 0.188396
w 325 -324 -305 0.28658
w 326 325 306 1
w 326 325 -306 0
w 326 -325 306 1
w 326 -325 -306 1
w 327 326 307 0.425139
w 327 326 -307 0.634521
w 327 -326 307 0.409968
w 327 -326 -307 0.830434
w 328 327 308 0.0630095
w 328 327 -308 0.0824203
w 328 -327 308 0.614738
w 328 -327 -308 0.939584
w 329 328 309 0
w 329 328 -309 1
w 329 -328 309 0
w 329 -328 -309 0
w 330 329 310 0
w 330 329 -310 1
w 330 -329 310 0
w 330 -329 -310 1
w 331 330 311 0
w 331 330 -311 0
w 331 -330 311 1
w 331 -330 -311 1
w 332 331 312 1
w 332 331 -312 0
w 332 -331 312 1
w 332 -331 -312 0
w 333 332 313 0.157868
w 333 332 -313 0.471181
w 333 -332 313 0.151907
w 333 -332 -313 0.567836
w 334 333 314 0
w 334 333 -314 1
w 334 -333 314 1
w 334 -333 -314 1
w 335 334 315 0.587188
w 335 334 -315 0.460587
w 335 -334 315 0.895407
w 335 -334 -315 0.0203394
w 336 335 316 1
w 336 335 -316 1
w 336 -335 316 1
w 336 -335 -316 0
w 337 336 317 1
w 337 336 -317 0
w 337 -336 317 1
w 337 -336 -317 1
w 338 337 318 0.220282
w 338 337 -318 0.0207647
w 338 -337 318 0.0370729
w 338 -337 -318 0.618523
w 339 338 319 1
w 339 338 -319 1
w 339 -338 319 0
w 339 -338 -319 1
w 340 339 320 1
w 340 339 -320 1
w 340 -339 320 0
w 340 -339 -320 0
w 341 321 0
w 341 -321 1
w 342 341 322 0.628798
w 342 341 -322 0.440911
w 342 -341 322 0.831165
w 342 -341 -322 0.75023
w 343 342 323 0.178139
w 343 342 -323 0.704879
w 343 -342 323 0.931311
w 343 -342 -323 0.360062
w 344 343 324 0.791985
w 344 343 -324 0.417875
w 344 -343 324 0.0425434
w 344 -343 -324 0.520049
w 345 344 325 0.0633081
w 345 344 -325 0.557122
w 345 -344 325 0.256679
w 345 -344 -325 0.130115
w 346 345 326 1
w 346 345 -326 1
w 346 -345 326 0
w 346 -345 -326 0
w 347 346 327 0.447865
w 347 346 -327 0.352372
w 347 -346 327 0.731343
w 347 -346 -327 0.616076
w 348 347 328 0.542169
w 348 347 -328 0.244874
w 348 -347 328 0.338787
w 348 -347 -328 0.373333
w 349 348 329 0.088418
w 349 348 -329 0.551472
w 349 -348 329 0.699984
w 349 -348 -329 0.0197287
w 350 349 330 0.690669
w 350 349 -330 0.811713
w 350 -349 330 0.329408
w 350 -349 -330 0.733213
w 351 350 331 0
w 351 350 -331 1
w 351 -350 331 1
w 351 -350 -331 0
w 352 351 332 0.000464208
w 352 351 -332 0.257314
w 352 -351 332 0.594739
w 352 -351 -332 0.81841
w 353 352 333 0.102445
w 353 352 -333 0.266275
w 353 -352 333 0.986984
w 353 -352 -333 0.833788
w 354 353 334 0.88486
w 354 353 -334 0.375957
w 354 -353 334 0.127226
w 354 -353 -334 0.223647
w 355 354 335 0.122331
w 355 354 -335 0.312065
w 355 -354 335 0.300762
w 355 -354 -335 0.822315
w 356 355 336 0
w 356 355 -336 1
w 356 -355 336 0
w 356 -355 -336 1
w 357 356 337 0
w 357 356 -337 1
w 357 -356 337 1
w 357 -356 -337 1
w 358 357 338 0.969354
w 358 357 -338 0.364617
w 358 -357 338 0.990827
w 358 -357 -338 0.564093
w 359 358 339 1
w 359 358 -339 1
w 359 -358 339 0
w 359 -358 -339 0
w 360 359 340 0.331654
w 360 359 -340 0.497283
w 360 -359 340 0.876283
w 360 -359 -340 0.45888
w 361 341 0.625573
w 361 -341 0.581211
w 362 361 342 0
w 362 361 -342 1
w 362 -361 342 1
w 362 -361 -342 0
w 363 362 343 0.508294
w 363 362 -343 0.680336
w 363 -362 343 0.162708
w 363 -362 -343 0.983563
w 364 363 344 0
w 364 363 -344 1
w 364 -363 344 1
w 364 -363 -344 0
w 365 364 345 0.913944
w 365 364 -345 0.738874
w 365 -364 345 0.89536
w 365 -364 -345 0.539383
w 366 365 346 1
w 366 365 -346 0
w 366 -365 346 1
w 366 -365 -346 1
w 367 366 347 0.782022
w 367 366 -347 0.135197
w 367 -366 347 0.370018
w 367 -366 -347 0.407595
w 368 367 348 0.403012
w 368 367 -348 0.333931
w 368 -367 348 0.119934
w 368 -367 -348 0.767799
w 369 368 349 0
w 369 368 -349 1
w 369 -368 349 0
w 369 -368 -349 1
w 370 369 350 0
w 370 369 -350 1
w 370 -369 350 0
w 370 -369 -350 1
w 371 370 351 0.319706
w 371 370 -351 0.179564
w 371 -370 351 0.318233
w 371 -370 -351 0.215066
w 372 371 352 0.723645
w 372 371 -352 0.559728
w 372 -371 352 0.870753
w 372 -371 -352 0.629384
w 373 372 353 0
w 373 372 -353 0
w 373 -372 353 0
w 373 -372 -353 1
w 374 373 354 0
w 374 373 -354 1
w 374 -373 354 1
w 374 -373 -354 1
w 375 374 355 0.244028
w 375 374 -355 0.336764
w 375 -374 355 0.778392
w 375 -374 -355 0.44318
w 376 375 356 0.120894
w 376 375 -356 0.847759
w 376 -375 356 0.203793
w 376 -375 -356 0.386514
w 377 376 357 1
w 377 376 -357 1
w 377 -376 357 0
w 377 -376 -357 1
w 378 377 358 1
w 378 377 -358 0
w 378 -377 358 1
w 378 -377 -358 1
w 379 378 359 0.90558
w 379 378 -359 0.565479
w 379 -378 359 0.328785
w 379 -378 -359 0.993229
w 380 379 360 0.481716
w 380 379 -360 0.200812
w 380 -379 360 0.91902
w 380 -379 -360 0.10721
w 381 361 0
w 381 -361 1
w 382 381 362 0.88802
w 382 381 -362 0.852204
w 382 -381 362 0.00649604
w 382 -381 -362 0.735778
w 383 382 363 1
w 383 382 -363 1
w 383 -382 363 0
w 383 -382 -363 1
w 384 383 364 1
w 384 383 -364 1
w 384 -383 364 1
w 384 -383 -364 0
w 385 384 365 1
w 385 384 -365 0
w 385 -384 365 1
w 385 -384 -365 1
w 386 385 366 1
w 386 385 -366 0
w 386 -385 366 1
w 386 -385 -366 0
w 387 386 367 1
w 387 386 -367 0
w 387 -386 367 1
w 387 -386 -367 0
w 388 387 368 0.526348
w 388 387 -368 0.795215
w 388 -387 368 0.318949
w 388 -387 -368 0.582345
w 389 388 369 0
w 389 388 -369 0
w 389 -388 369 1
w 389 -388 -369 1
w 390 389 370 1
w 390 389 -370 0
w 390 -389 370 0
w 390 -389 -370 0
w 391 390 371 1
w 391 390 -371 1
w 391 -390 371 0
w 391 -390 -371 0
w 392 391 372 0.352714
w 392 391 -372 0.00716784
w 392 -391 372 0.338458
w 392 -391 -372 0.603026
w 393 392 373 0
w 393 392 -373 1
w 393 -392 373 0
w 393 -392 -373 0
w 394 393 374 0.626022
w 394 393 -374 0.82551
w 394 -393 374 0.200297
w 394 -393 -374 0.208367
w 395 394 375 1
w 395 394 -375 0
w 395 -394 375 0
w 395 -394 -375 0
w 396 395 376 0.552478
w 396 395 -376 0.839568
w 396 -395 376 0.946359
w 396 -395 -376 0.3438
w 397 396 377 0
w 397 396 -377 1
w 397 -396 377 1
w 397 -396 -377 1
w 398 397 378 0.849231
w 398 397 -378 0.725628
w 398 -397 378 0.191893
w 398 -397 -378 0.452257
w 399 398 379 0
w 399 398 -379 0
w 399 -398 379 1
w 399 -398 -379 0
w 400 399 380 0.876853
w 400 399 -380 0.289273
w 400 -399 380 0.832078
w 400 -399 -380 0.08522